Instance Name : r211
Date : 2022-07-18
Solution
Route 1 : 27 28 53 40 21 73 72 75 22 41 23 67 39 25 55 24 29 34 35 65 66 20 32 10 70 1 50 3 77 68 80 54 4 56 74
Route 2 : 52 69 31 88 62 11 19 7 82 83 18 6 95 99 59 98 85 61 16 86 38 44 14 42 43 15 57 2 87 97 92 37 100 91 93 96 94 13 58 26
Route 3 : 12 76 79 78 33 81 9 71 51 30 90 63 64 49 36 47 48 46 8 45 17 84 5 60 89
